Instance name : SB_bar-n100-6
Authors : 
Date : 
Reference 
Solution
Route 1 : 4 31 54 32 82 81 48 25 40 28 19 75 90 98 69 11 3 78 10 61 60 24 50 53 46 100 96 74 
Route 2 : 38 34 12 88 84 62 21 42 71 6 92 56 36 13 26 49 63 76 39 99 89 86 
Route 3 : 20 29 79 70 41 37 91 1 87 51 7 23 57 5 17 2 67 73 9 55 52 59 44 15 94 27 77 65 
Route 4 : 22 43 93 16 47 97 72 8 18 66 30 68 45 80 33 83 95 35 14 85 64 58 
